1 3 100 249327.05
1 3 200 267455.22
1 3 300 264988.52
2 3 100 327052.64
2 3 200 332316.63
2 3 300 360600.39
3 3 100 339801.45
3 3 200 361130.45
3 3 300 376809.92
4 3 100 333461.78
4 3 200 343212.03
4 3 300 372707.97
5 3 100 346838.93
5 3 200 345957.20
5 3 300 350998.80
